(set-logic QF_S)
(declare-fun var0 () String)
(declare-fun var1 () String)
(declare-fun var2 () String)
(declare-fun var3 () Int)
(declare-fun var4 () Int)
(declare-fun var5 () Int)
(declare-fun var6 () Bool)
(declare-fun var7 () Bool)
(declare-fun var8 () Bool)
(assert (str.contains (str.replace var0 "?;0N}wdWPu" var0) (str.replace var1 var2 var1)))
(assert (> (str.indexof var0 var2 var5) (str.indexof var1 var1 var5)))
(assert (<= (str.len (str.at var2 var4)) (str.len var2)))
(assert (str.in.re (str.substr var1 var3 var3) (re.+ re.allchar)))
(check-sat)